Route #1: 100
Route #2: 7 75 36 47 57 25 31 6 20 3 89
Route #3: 8 54 11 76 60 5 38 50 78 55 86
Route #4: 24 85 1 65 79 14 44 99 22 73 40
Route #5: 41 69 82 59 21 80 84 2 66 58 88
Route #6: 64 70 48 83 30 28 13 92 16 23 74
Route #7: 81 98 96 68 9 18 10 49 42 90 4
Route #8: 63 52 87 45 17 34 71 32 39 91 67
Route #9: 61 72 37 51 77 93 33 46 53 43 19
Route #10: 35 62 26 94 56 29 97 12 27 95 15
Cost 14740
